p cnf 561 1903
c p weight -223 1 0
c p weight 223 -1 0
c p weight 227 6.12323399573676603586882014729198302312846062338790031898128063403419218957424163818359375E-17 0
c p weight -227 1 0
c p weight 228 1 0
c p weight -228 1 0
c p weight -225 1 0
c p weight 225 -1 0
c p weight -229 1 0
c p weight 229 -1 0
c p weight -231 1 0
c p weight 231 -1 0
c p weight -234 1 0
c p weight 234 -1 0
c p weight -237 1 0
c p weight 237 -1 0
c p weight -240 1 0
c p weight 240 -1 0
c p weight -243 1 0
c p weight 243 -1 0
c p weight -246 1 0
c p weight 246 -1 0
c p weight -249 1 0
c p weight 249 -1 0
c p weight -252 1 0
c p weight 252 -1 0
c p weight -255 1 0
c p weight 255 -1 0
c p weight -258 1 0
c p weight 258 -1 0
c p weight -261 1 0
c p weight 261 -1 0
c p weight -264 1 0
c p weight 264 -1 0
c p weight -267 1 0
c p weight 267 -1 0
c p weight -270 1 0
c p weight 270 -1 0
c p weight -273 1 0
c p weight 273 -1 0
c p weight -276 1 0
c p weight 276 -1 0
c p weight -279 1 0
c p weight 279 -1 0
c p weight -282 1 0
c p weight 282 -1 0
c p weight -285 1 0
c p weight 285 -1 0
c p weight -288 1 0
c p weight 288 -1 0
c p weight -291 1 0
c p weight 291 -1 0
c p weight -294 1 0
c p weight 294 -1 0
c p weight -297 1 0
c p weight 297 -1 0
c p weight -300 1 0
c p weight 300 -1 0
c p weight -303 1 0
c p weight 303 -1 0
c p weight -306 1 0
c p weight 306 -1 0
c p weight -309 1 0
c p weight 309 -1 0
c p weight -312 1 0
c p weight 312 -1 0
c p weight -315 1 0
c p weight 315 -1 0
c p weight -318 1 0
c p weight 318 -1 0
c p weight -321 1 0
c p weight 321 -1 0
c p weight -324 1 0
c p weight 324 -1 0
c p weight -327 1 0
c p weight 327 -1 0
c p weight -330 1 0
c p weight 330 -1 0
c p weight -333 1 0
c p weight 333 -1 0
c p weight -336 1 0
c p weight 336 -1 0
c p weight -339 1 0
c p weight 339 -1 0
c p weight -342 1 0
c p weight 342 -1 0
c p weight -345 1 0
c p weight 345 -1 0
c p weight -348 1 0
c p weight 348 -1 0
c p weight -351 1 0
c p weight 351 -1 0
c p weight -354 1 0
c p weight 354 -1 0
c p weight -357 1 0
c p weight 357 -1 0
c p weight -360 1 0
c p weight 360 -1 0
c p weight -363 1 0
c p weight 363 -1 0
c p weight -366 1 0
c p weight 366 -1 0
c p weight -369 1 0
c p weight 369 -1 0
c p weight -372 1 0
c p weight 372 -1 0
c p weight -375 1 0
c p weight 375 -1 0
c p weight -378 1 0
c p weight 378 -1 0
c p weight -381 1 0
c p weight 381 -1 0
c p weight -384 1 0
c p weight 384 -1 0
c p weight -387 1 0
c p weight 387 -1 0
c p weight -390 1 0
c p weight 390 -1 0
c p weight -393 1 0
c p weight 393 -1 0
c p weight -396 1 0
c p weight 396 -1 0
c p weight -399 1 0
c p weight 399 -1 0
c p weight -402 1 0
c p weight 402 -1 0
c p weight -405 1 0
c p weight 405 -1 0
c p weight -408 1 0
c p weight 408 -1 0
c p weight -411 1 0
c p weight 411 -1 0
c p weight -414 1 0
c p weight 414 -1 0
c p weight -417 1 0
c p weight 417 -1 0
c p weight -420 1 0
c p weight 420 -1 0
c p weight -423 1 0
c p weight 423 -1 0
c p weight -426 1 0
c p weight 426 -1 0
c p weight -429 1 0
c p weight 429 -1 0
c p weight -432 1 0
c p weight 432 -1 0
c p weight -435 1 0
c p weight 435 -1 0
c p weight -438 1 0
c p weight 438 -1 0
c p weight -441 1 0
c p weight 441 -1 0
c p weight -444 1 0
c p weight 444 -1 0
c p weight -447 1 0
c p weight 447 -1 0
c p weight -450 1 0
c p weight 450 -1 0
c p weight -453 1 0
c p weight 453 -1 0
c p weight -456 1 0
c p weight 456 -1 0
c p weight -459 1 0
c p weight 459 -1 0
c p weight -462 1 0
c p weight 462 -1 0
c p weight -465 1 0
c p weight 465 -1 0
c p weight -468 1 0
c p weight 468 -1 0
c p weight -471 1 0
c p weight 471 -1 0
c p weight -474 1 0
c p weight 474 -1 0
c p weight -477 1 0
c p weight 477 -1 0
c p weight -480 1 0
c p weight 480 -1 0
c p weight -483 1 0
c p weight 483 -1 0
c p weight -486 1 0
c p weight 486 -1 0
c p weight -489 1 0
c p weight 489 -1 0
c p weight -492 1 0
c p weight 492 -1 0
c p weight -495 1 0
c p weight 495 -1 0
c p weight -498 1 0
c p weight 498 -1 0
c p weight -501 1 0
c p weight 501 -1 0
c p weight -504 1 0
c p weight 504 -1 0
c p weight -507 1 0
c p weight 507 -1 0
c p weight -510 1 0
c p weight 510 -1 0
c p weight -513 1 0
c p weight 513 -1 0
c p weight -516 1 0
c p weight 516 -1 0
c p weight -519 1 0
c p weight 519 -1 0
c p weight -522 1 0
c p weight 522 -1 0
c p weight -525 1 0
c p weight 525 -1 0
c p weight -528 1 0
c p weight 528 -1 0
c p weight -531 1 0
c p weight 531 -1 0
c p weight -534 1 0
c p weight 534 -1 0
c p weight -537 1 0
c p weight 537 -1 0
c p weight -540 1 0
c p weight 540 -1 0
c p weight -543 1 0
c p weight 543 -1 0
c p weight -546 1 0
c p weight 546 -1 0
c p weight -549 1 0
c p weight 549 -1 0
c p weight -552 1 0
c p weight 552 -1 0
c p weight -555 1 0
c p weight 555 -1 0
c p weight -558 1 0
c p weight 558 -1 0
c p weight 561 0.5 0
c p weight -561 1 0
561 0
-221 0
-219 0
-217 0
-215 0
-213 0
-211 0
-209 0
-207 0
-205 0
-203 0
-201 0
-199 0
-197 0
-195 0
-193 0
-191 0
-189 0
-187 0
-185 0
-183 0
-181 0
-179 0
-177 0
-175 0
-173 0
-171 0
-169 0
-167 0
-165 0
-163 0
-161 0
-159 0
-157 0
-155 0
-153 0
-151 0
-149 0
-147 0
-145 0
-143 0
-141 0
-139 0
-137 0
-135 0
-133 0
-131 0
-129 0
-127 0
-125 0
-123 0
-121 0
-119 0
-117 0
-115 0
-113 0
-111 0
-109 0
-107 0
-105 0
-103 0
-101 0
-99 0
-97 0
-95 0
-93 0
-91 0
-89 0
-87 0
-85 0
-83 0
-81 0
-79 0
-77 0
-75 0
-73 0
-71 0
-69 0
-67 0
-65 0
-63 0
-61 0
-59 0
-57 0
-55 0
-53 0
-51 0
-49 0
-47 0
-45 0
-43 0
-41 0
-39 0
-37 0
-35 0
-33 0
-31 0
-29 0
-27 0
-25 0
-23 0
-21 0
-19 0
-17 0
-15 0
-13 0
-11 0
-9 0
-7 0
-5 0
-3 0
-1 0
-223 221 0
-223 222 0
223 -221 -222 0
224 221 -222 0
224 -221 222 0
-224 221 222 0
-224 -221 -222 0
-225 226 0
-225 224 0
-225 -221 0
225 -226 221 -224 0
226 -221 224 0
-226 221 224 0
-227 224 0
226 -227 -221 0
-226 -227 221 0
226 227 221 -224 0
-226 227 -221 -224 0
-228 224 0
226 -228 221 0
-226 -228 -221 0
226 228 -221 -224 0
-226 228 221 -224 0
-229 226 0
-229 224 0
229 -226 -224 0
230 226 -224 0
230 -226 224 0
-230 226 224 0
-230 -226 -224 0
-231 226 0
-231 220 0
-231 219 -230 0
-231 -219 230 0
231 -226 219 230 -220 0
231 -226 -219 -230 -220 0
233 226 -219 0
233 -226 219 0
-233 226 219 0
-233 -226 -219 0
232 230 -220 0
232 -230 220 0
-232 230 220 0
-232 -230 -220 0
-234 233 0
-234 218 0
-234 217 -220 0
-234 -217 220 0
234 -233 217 220 -218 0
234 -233 -217 -220 -218 0
236 233 -217 0
236 -233 217 0
-236 233 217 0
-236 -233 -217 0
235 220 -218 0
235 -220 218 0
-235 220 218 0
-235 -220 -218 0
-237 236 0
-237 216 0
-237 215 -218 0
-237 -215 218 0
237 -236 215 218 -216 0
237 -236 -215 -218 -216 0
239 236 -215 0
239 -236 215 0
-239 236 215 0
-239 -236 -215 0
238 218 -216 0
238 -218 216 0
-238 218 216 0
-238 -218 -216 0
-240 239 0
-240 214 0
-240 213 -216 0
-240 -213 216 0
240 -239 213 216 -214 0
240 -239 -213 -216 -214 0
242 239 -213 0
242 -239 213 0
-242 239 213 0
-242 -239 -213 0
241 216 -214 0
241 -216 214 0
-241 216 214 0
-241 -216 -214 0
-243 242 0
-243 212 0
-243 211 -214 0
-243 -211 214 0
243 -242 211 214 -212 0
243 -242 -211 -214 -212 0
245 242 -211 0
245 -242 211 0
-245 242 211 0
-245 -242 -211 0
244 214 -212 0
244 -214 212 0
-244 214 212 0
-244 -214 -212 0
-246 245 0
-246 210 0
-246 209 -212 0
-246 -209 212 0
246 -245 209 212 -210 0
246 -245 -209 -212 -210 0
248 245 -209 0
248 -245 209 0
-248 245 209 0
-248 -245 -209 0
247 212 -210 0
247 -212 210 0
-247 212 210 0
-247 -212 -210 0
-249 248 0
-249 208 0
-249 207 -210 0
-249 -207 210 0
249 -248 207 210 -208 0
249 -248 -207 -210 -208 0
251 248 -207 0
251 -248 207 0
-251 248 207 0
-251 -248 -207 0
250 210 -208 0
250 -210 208 0
-250 210 208 0
-250 -210 -208 0
-252 251 0
-252 206 0
-252 205 -208 0
-252 -205 208 0
252 -251 205 208 -206 0
252 -251 -205 -208 -206 0
254 251 -205 0
254 -251 205 0
-254 251 205 0
-254 -251 -205 0
253 208 -206 0
253 -208 206 0
-253 208 206 0
-253 -208 -206 0
-255 254 0
-255 204 0
-255 203 -206 0
-255 -203 206 0
255 -254 203 206 -204 0
255 -254 -203 -206 -204 0
257 254 -203 0
257 -254 203 0
-257 254 203 0
-257 -254 -203 0
256 206 -204 0
256 -206 204 0
-256 206 204 0
-256 -206 -204 0
-258 257 0
-258 202 0
-258 201 -204 0
-258 -201 204 0
258 -257 201 204 -202 0
258 -257 -201 -204 -202 0
260 257 -201 0
260 -257 201 0
-260 257 201 0
-260 -257 -201 0
259 204 -202 0
259 -204 202 0
-259 204 202 0
-259 -204 -202 0
-261 260 0
-261 200 0
-261 199 -202 0
-261 -199 202 0
261 -260 199 202 -200 0
261 -260 -199 -202 -200 0
263 260 -199 0
263 -260 199 0
-263 260 199 0
-263 -260 -199 0
262 202 -200 0
262 -202 200 0
-262 202 200 0
-262 -202 -200 0
-264 263 0
-264 198 0
-264 197 -200 0
-264 -197 200 0
264 -263 197 200 -198 0
264 -263 -197 -200 -198 0
266 263 -197 0
266 -263 197 0
-266 263 197 0
-266 -263 -197 0
265 200 -198 0
265 -200 198 0
-265 200 198 0
-265 -200 -198 0
-267 266 0
-267 196 0
-267 195 -198 0
-267 -195 198 0
267 -266 195 198 -196 0
267 -266 -195 -198 -196 0
269 266 -195 0
269 -266 195 0
-269 266 195 0
-269 -266 -195 0
268 198 -196 0
268 -198 196 0
-268 198 196 0
-268 -198 -196 0
-270 269 0
-270 194 0
-270 193 -196 0
-270 -193 196 0
270 -269 193 196 -194 0
270 -269 -193 -196 -194 0
272 269 -193 0
272 -269 193 0
-272 269 193 0
-272 -269 -193 0
271 196 -194 0
271 -196 194 0
-271 196 194 0
-271 -196 -194 0
-273 272 0
-273 192 0
-273 191 -194 0
-273 -191 194 0
273 -272 191 194 -192 0
273 -272 -191 -194 -192 0
275 272 -191 0
275 -272 191 0
-275 272 191 0
-275 -272 -191 0
274 194 -192 0
274 -194 192 0
-274 194 192 0
-274 -194 -192 0
-276 275 0
-276 190 0
-276 189 -192 0
-276 -189 192 0
276 -275 189 192 -190 0
276 -275 -189 -192 -190 0
278 275 -189 0
278 -275 189 0
-278 275 189 0
-278 -275 -189 0
277 192 -190 0
277 -192 190 0
-277 192 190 0
-277 -192 -190 0
-279 278 0
-279 188 0
-279 187 -190 0
-279 -187 190 0
279 -278 187 190 -188 0
279 -278 -187 -190 -188 0
281 278 -187 0
281 -278 187 0
-281 278 187 0
-281 -278 -187 0
280 190 -188 0
280 -190 188 0
-280 190 188 0
-280 -190 -188 0
-282 281 0
-282 186 0
-282 185 -188 0
-282 -185 188 0
282 -281 185 188 -186 0
282 -281 -185 -188 -186 0
284 281 -185 0
284 -281 185 0
-284 281 185 0
-284 -281 -185 0
283 188 -186 0
283 -188 186 0
-283 188 186 0
-283 -188 -186 0
-285 284 0
-285 184 0
-285 183 -186 0
-285 -183 186 0
285 -284 183 186 -184 0
285 -284 -183 -186 -184 0
287 284 -183 0
287 -284 183 0
-287 284 183 0
-287 -284 -183 0
286 186 -184 0
286 -186 184 0
-286 186 184 0
-286 -186 -184 0
-288 287 0
-288 182 0
-288 181 -184 0
-288 -181 184 0
288 -287 181 184 -182 0
288 -287 -181 -184 -182 0
290 287 -181 0
290 -287 181 0
-290 287 181 0
-290 -287 -181 0
289 184 -182 0
289 -184 182 0
-289 184 182 0
-289 -184 -182 0
-291 290 0
-291 180 0
-291 179 -182 0
-291 -179 182 0
291 -290 179 182 -180 0
291 -290 -179 -182 -180 0
293 290 -179 0
293 -290 179 0
-293 290 179 0
-293 -290 -179 0
292 182 -180 0
292 -182 180 0
-292 182 180 0
-292 -182 -180 0
-294 293 0
-294 178 0
-294 177 -180 0
-294 -177 180 0
294 -293 177 180 -178 0
294 -293 -177 -180 -178 0
296 293 -177 0
296 -293 177 0
-296 293 177 0
-296 -293 -177 0
295 180 -178 0
295 -180 178 0
-295 180 178 0
-295 -180 -178 0
-297 296 0
-297 176 0
-297 175 -178 0
-297 -175 178 0
297 -296 175 178 -176 0
297 -296 -175 -178 -176 0
299 296 -175 0
299 -296 175 0
-299 296 175 0
-299 -296 -175 0
298 178 -176 0
298 -178 176 0
-298 178 176 0
-298 -178 -176 0
-300 299 0
-300 174 0
-300 173 -176 0
-300 -173 176 0
300 -299 173 176 -174 0
300 -299 -173 -176 -174 0
302 299 -173 0
302 -299 173 0
-302 299 173 0
-302 -299 -173 0
301 176 -174 0
301 -176 174 0
-301 176 174 0
-301 -176 -174 0
-303 302 0
-303 172 0
-303 171 -174 0
-303 -171 174 0
303 -302 171 174 -172 0
303 -302 -171 -174 -172 0
305 302 -171 0
305 -302 171 0
-305 302 171 0
-305 -302 -171 0
304 174 -172 0
304 -174 172 0
-304 174 172 0
-304 -174 -172 0
-306 305 0
-306 170 0
-306 169 -172 0
-306 -169 172 0
306 -305 169 172 -170 0
306 -305 -169 -172 -170 0
308 305 -169 0
308 -305 169 0
-308 305 169 0
-308 -305 -169 0
307 172 -170 0
307 -172 170 0
-307 172 170 0
-307 -172 -170 0
-309 308 0
-309 168 0
-309 167 -170 0
-309 -167 170 0
309 -308 167 170 -168 0
309 -308 -167 -170 -168 0
311 308 -167 0
311 -308 167 0
-311 308 167 0
-311 -308 -167 0
310 170 -168 0
310 -170 168 0
-310 170 168 0
-310 -170 -168 0
-312 311 0
-312 166 0
-312 165 -168 0
-312 -165 168 0
312 -311 165 168 -166 0
312 -311 -165 -168 -166 0
314 311 -165 0
314 -311 165 0
-314 311 165 0
-314 -311 -165 0
313 168 -166 0
313 -168 166 0
-313 168 166 0
-313 -168 -166 0
-315 314 0
-315 164 0
-315 163 -166 0
-315 -163 166 0
315 -314 163 166 -164 0
315 -314 -163 -166 -164 0
317 314 -163 0
317 -314 163 0
-317 314 163 0
-317 -314 -163 0
316 166 -164 0
316 -166 164 0
-316 166 164 0
-316 -166 -164 0
-318 317 0
-318 162 0
-318 161 -164 0
-318 -161 164 0
318 -317 161 164 -162 0
318 -317 -161 -164 -162 0
320 317 -161 0
320 -317 161 0
-320 317 161 0
-320 -317 -161 0
319 164 -162 0
319 -164 162 0
-319 164 162 0
-319 -164 -162 0
-321 320 0
-321 160 0
-321 159 -162 0
-321 -159 162 0
321 -320 159 162 -160 0
321 -320 -159 -162 -160 0
323 320 -159 0
323 -320 159 0
-323 320 159 0
-323 -320 -159 0
322 162 -160 0
322 -162 160 0
-322 162 160 0
-322 -162 -160 0
-324 323 0
-324 158 0
-324 157 -160 0
-324 -157 160 0
324 -323 157 160 -158 0
324 -323 -157 -160 -158 0
326 323 -157 0
326 -323 157 0
-326 323 157 0
-326 -323 -157 0
325 160 -158 0
325 -160 158 0
-325 160 158 0
-325 -160 -158 0
-327 326 0
-327 156 0
-327 155 -158 0
-327 -155 158 0
327 -326 155 158 -156 0
327 -326 -155 -158 -156 0
329 326 -155 0
329 -326 155 0
-329 326 155 0
-329 -326 -155 0
328 158 -156 0
328 -158 156 0
-328 158 156 0
-328 -158 -156 0
-330 329 0
-330 154 0
-330 153 -156 0
-330 -153 156 0
330 -329 153 156 -154 0
330 -329 -153 -156 -154 0
332 329 -153 0
332 -329 153 0
-332 329 153 0
-332 -329 -153 0
331 156 -154 0
331 -156 154 0
-331 156 154 0
-331 -156 -154 0
-333 332 0
-333 152 0
-333 151 -154 0
-333 -151 154 0
333 -332 151 154 -152 0
333 -332 -151 -154 -152 0
335 332 -151 0
335 -332 151 0
-335 332 151 0
-335 -332 -151 0
334 154 -152 0
334 -154 152 0
-334 154 152 0
-334 -154 -152 0
-336 335 0
-336 150 0
-336 149 -152 0
-336 -149 152 0
336 -335 149 152 -150 0
336 -335 -149 -152 -150 0
338 335 -149 0
338 -335 149 0
-338 335 149 0
-338 -335 -149 0
337 152 -150 0
337 -152 150 0
-337 152 150 0
-337 -152 -150 0
-339 338 0
-339 148 0
-339 147 -150 0
-339 -147 150 0
339 -338 147 150 -148 0
339 -338 -147 -150 -148 0
341 338 -147 0
341 -338 147 0
-341 338 147 0
-341 -338 -147 0
340 150 -148 0
340 -150 148 0
-340 150 148 0
-340 -150 -148 0
-342 341 0
-342 146 0
-342 145 -148 0
-342 -145 148 0
342 -341 145 148 -146 0
342 -341 -145 -148 -146 0
344 341 -145 0
344 -341 145 0
-344 341 145 0
-344 -341 -145 0
343 148 -146 0
343 -148 146 0
-343 148 146 0
-343 -148 -146 0
-345 344 0
-345 144 0
-345 143 -146 0
-345 -143 146 0
345 -344 143 146 -144 0
345 -344 -143 -146 -144 0
347 344 -143 0
347 -344 143 0
-347 344 143 0
-347 -344 -143 0
346 146 -144 0
346 -146 144 0
-346 146 144 0
-346 -146 -144 0
-348 347 0
-348 142 0
-348 141 -144 0
-348 -141 144 0
348 -347 141 144 -142 0
348 -347 -141 -144 -142 0
350 347 -141 0
350 -347 141 0
-350 347 141 0
-350 -347 -141 0
349 144 -142 0
349 -144 142 0
-349 144 142 0
-349 -144 -142 0
-351 350 0
-351 140 0
-351 139 -142 0
-351 -139 142 0
351 -350 139 142 -140 0
351 -350 -139 -142 -140 0
353 350 -139 0
353 -350 139 0
-353 350 139 0
-353 -350 -139 0
352 142 -140 0
352 -142 140 0
-352 142 140 0
-352 -142 -140 0
-354 353 0
-354 138 0
-354 137 -140 0
-354 -137 140 0
354 -353 137 140 -138 0
354 -353 -137 -140 -138 0
356 353 -137 0
356 -353 137 0
-356 353 137 0
-356 -353 -137 0
355 140 -138 0
355 -140 138 0
-355 140 138 0
-355 -140 -138 0
-357 356 0
-357 136 0
-357 135 -138 0
-357 -135 138 0
357 -356 135 138 -136 0
357 -356 -135 -138 -136 0
359 356 -135 0
359 -356 135 0
-359 356 135 0
-359 -356 -135 0
358 138 -136 0
358 -138 136 0
-358 138 136 0
-358 -138 -136 0
-360 359 0
-360 134 0
-360 133 -136 0
-360 -133 136 0
360 -359 133 136 -134 0
360 -359 -133 -136 -134 0
362 359 -133 0
362 -359 133 0
-362 359 133 0
-362 -359 -133 0
361 136 -134 0
361 -136 134 0
-361 136 134 0
-361 -136 -134 0
-363 362 0
-363 132 0
-363 131 -134 0
-363 -131 134 0
363 -362 131 134 -132 0
363 -362 -131 -134 -132 0
365 362 -131 0
365 -362 131 0
-365 362 131 0
-365 -362 -131 0
364 134 -132 0
364 -134 132 0
-364 134 132 0
-364 -134 -132 0
-366 365 0
-366 130 0
-366 129 -132 0
-366 -129 132 0
366 -365 129 132 -130 0
366 -365 -129 -132 -130 0
368 365 -129 0
368 -365 129 0
-368 365 129 0
-368 -365 -129 0
367 132 -130 0
367 -132 130 0
-367 132 130 0
-367 -132 -130 0
-369 368 0
-369 128 0
-369 127 -130 0
-369 -127 130 0
369 -368 127 130 -128 0
369 -368 -127 -130 -128 0
371 368 -127 0
371 -368 127 0
-371 368 127 0
-371 -368 -127 0
370 130 -128 0
370 -130 128 0
-370 130 128 0
-370 -130 -128 0
-372 371 0
-372 126 0
-372 125 -128 0
-372 -125 128 0
372 -371 125 128 -126 0
372 -371 -125 -128 -126 0
374 371 -125 0
374 -371 125 0
-374 371 125 0
-374 -371 -125 0
373 128 -126 0
373 -128 126 0
-373 128 126 0
-373 -128 -126 0
-375 374 0
-375 124 0
-375 123 -126 0
-375 -123 126 0
375 -374 123 126 -124 0
375 -374 -123 -126 -124 0
377 374 -123 0
377 -374 123 0
-377 374 123 0
-377 -374 -123 0
376 126 -124 0
376 -126 124 0
-376 126 124 0
-376 -126 -124 0
-378 377 0
-378 122 0
-378 121 -124 0
-378 -121 124 0
378 -377 121 124 -122 0
378 -377 -121 -124 -122 0
380 377 -121 0
380 -377 121 0
-380 377 121 0
-380 -377 -121 0
379 124 -122 0
379 -124 122 0
-379 124 122 0
-379 -124 -122 0
-381 380 0
-381 120 0
-381 119 -122 0
-381 -119 122 0
381 -380 119 122 -120 0
381 -380 -119 -122 -120 0
383 380 -119 0
383 -380 119 0
-383 380 119 0
-383 -380 -119 0
382 122 -120 0
382 -122 120 0
-382 122 120 0
-382 -122 -120 0
-384 383 0
-384 118 0
-384 117 -120 0
-384 -117 120 0
384 -383 117 120 -118 0
384 -383 -117 -120 -118 0
386 383 -117 0
386 -383 117 0
-386 383 117 0
-386 -383 -117 0
385 120 -118 0
385 -120 118 0
-385 120 118 0
-385 -120 -118 0
-387 386 0
-387 116 0
-387 115 -118 0
-387 -115 118 0
387 -386 115 118 -116 0
387 -386 -115 -118 -116 0
389 386 -115 0
389 -386 115 0
-389 386 115 0
-389 -386 -115 0
388 118 -116 0
388 -118 116 0
-388 118 116 0
-388 -118 -116 0
-390 389 0
-390 114 0
-390 113 -116 0
-390 -113 116 0
390 -389 113 116 -114 0
390 -389 -113 -116 -114 0
392 389 -113 0
392 -389 113 0
-392 389 113 0
-392 -389 -113 0
391 116 -114 0
391 -116 114 0
-391 116 114 0
-391 -116 -114 0
-393 392 0
-393 112 0
-393 111 -114 0
-393 -111 114 0
393 -392 111 114 -112 0
393 -392 -111 -114 -112 0
395 392 -111 0
395 -392 111 0
-395 392 111 0
-395 -392 -111 0
394 114 -112 0
394 -114 112 0
-394 114 112 0
-394 -114 -112 0
-396 395 0
-396 110 0
-396 109 -112 0
-396 -109 112 0
396 -395 109 112 -110 0
396 -395 -109 -112 -110 0
398 395 -109 0
398 -395 109 0
-398 395 109 0
-398 -395 -109 0
397 112 -110 0
397 -112 110 0
-397 112 110 0
-397 -112 -110 0
-399 398 0
-399 108 0
-399 107 -110 0
-399 -107 110 0
399 -398 107 110 -108 0
399 -398 -107 -110 -108 0
401 398 -107 0
401 -398 107 0
-401 398 107 0
-401 -398 -107 0
400 110 -108 0
400 -110 108 0
-400 110 108 0
-400 -110 -108 0
-402 401 0
-402 106 0
-402 105 -108 0
-402 -105 108 0
402 -401 105 108 -106 0
402 -401 -105 -108 -106 0
404 401 -105 0
404 -401 105 0
-404 401 105 0
-404 -401 -105 0
403 108 -106 0
403 -108 106 0
-403 108 106 0
-403 -108 -106 0
-405 404 0
-405 104 0
-405 103 -106 0
-405 -103 106 0
405 -404 103 106 -104 0
405 -404 -103 -106 -104 0
407 404 -103 0
407 -404 103 0
-407 404 103 0
-407 -404 -103 0
406 106 -104 0
406 -106 104 0
-406 106 104 0
-406 -106 -104 0
-408 407 0
-408 102 0
-408 101 -104 0
-408 -101 104 0
408 -407 101 104 -102 0
408 -407 -101 -104 -102 0
410 407 -101 0
410 -407 101 0
-410 407 101 0
-410 -407 -101 0
409 104 -102 0
409 -104 102 0
-409 104 102 0
-409 -104 -102 0
-411 410 0
-411 100 0
-411 99 -102 0
-411 -99 102 0
411 -410 99 102 -100 0
411 -410 -99 -102 -100 0
413 410 -99 0
413 -410 99 0
-413 410 99 0
-413 -410 -99 0
412 102 -100 0
412 -102 100 0
-412 102 100 0
-412 -102 -100 0
-414 413 0
-414 98 0
-414 97 -100 0
-414 -97 100 0
414 -413 97 100 -98 0
414 -413 -97 -100 -98 0
416 413 -97 0
416 -413 97 0
-416 413 97 0
-416 -413 -97 0
415 100 -98 0
415 -100 98 0
-415 100 98 0
-415 -100 -98 0
-417 416 0
-417 96 0
-417 95 -98 0
-417 -95 98 0
417 -416 95 98 -96 0
417 -416 -95 -98 -96 0
419 416 -95 0
419 -416 95 0
-419 416 95 0
-419 -416 -95 0
418 98 -96 0
418 -98 96 0
-418 98 96 0
-418 -98 -96 0
-420 419 0
-420 94 0
-420 93 -96 0
-420 -93 96 0
420 -419 93 96 -94 0
420 -419 -93 -96 -94 0
422 419 -93 0
422 -419 93 0
-422 419 93 0
-422 -419 -93 0
421 96 -94 0
421 -96 94 0
-421 96 94 0
-421 -96 -94 0
-423 422 0
-423 92 0
-423 91 -94 0
-423 -91 94 0
423 -422 91 94 -92 0
423 -422 -91 -94 -92 0
425 422 -91 0
425 -422 91 0
-425 422 91 0
-425 -422 -91 0
424 94 -92 0
424 -94 92 0
-424 94 92 0
-424 -94 -92 0
-426 425 0
-426 90 0
-426 89 -92 0
-426 -89 92 0
426 -425 89 92 -90 0
426 -425 -89 -92 -90 0
428 425 -89 0
428 -425 89 0
-428 425 89 0
-428 -425 -89 0
427 92 -90 0
427 -92 90 0
-427 92 90 0
-427 -92 -90 0
-429 428 0
-429 88 0
-429 87 -90 0
-429 -87 90 0
429 -428 87 90 -88 0
429 -428 -87 -90 -88 0
431 428 -87 0
431 -428 87 0
-431 428 87 0
-431 -428 -87 0
430 90 -88 0
430 -90 88 0
-430 90 88 0
-430 -90 -88 0
-432 431 0
-432 86 0
-432 85 -88 0
-432 -85 88 0
432 -431 85 88 -86 0
432 -431 -85 -88 -86 0
434 431 -85 0
434 -431 85 0
-434 431 85 0
-434 -431 -85 0
433 88 -86 0
433 -88 86 0
-433 88 86 0
-433 -88 -86 0
-435 434 0
-435 84 0
-435 83 -86 0
-435 -83 86 0
435 -434 83 86 -84 0
435 -434 -83 -86 -84 0
437 434 -83 0
437 -434 83 0
-437 434 83 0
-437 -434 -83 0
436 86 -84 0
436 -86 84 0
-436 86 84 0
-436 -86 -84 0
-438 437 0
-438 82 0
-438 81 -84 0
-438 -81 84 0
438 -437 81 84 -82 0
438 -437 -81 -84 -82 0
440 437 -81 0
440 -437 81 0
-440 437 81 0
-440 -437 -81 0
439 84 -82 0
439 -84 82 0
-439 84 82 0
-439 -84 -82 0
-441 440 0
-441 80 0
-441 79 -82 0
-441 -79 82 0
441 -440 79 82 -80 0
441 -440 -79 -82 -80 0
443 440 -79 0
443 -440 79 0
-443 440 79 0
-443 -440 -79 0
442 82 -80 0
442 -82 80 0
-442 82 80 0
-442 -82 -80 0
-444 443 0
-444 78 0
-444 77 -80 0
-444 -77 80 0
444 -443 77 80 -78 0
444 -443 -77 -80 -78 0
446 443 -77 0
446 -443 77 0
-446 443 77 0
-446 -443 -77 0
445 80 -78 0
445 -80 78 0
-445 80 78 0
-445 -80 -78 0
-447 446 0
-447 76 0
-447 75 -78 0
-447 -75 78 0
447 -446 75 78 -76 0
447 -446 -75 -78 -76 0
449 446 -75 0
449 -446 75 0
-449 446 75 0
-449 -446 -75 0
448 78 -76 0
448 -78 76 0
-448 78 76 0
-448 -78 -76 0
-450 449 0
-450 74 0
-450 73 -76 0
-450 -73 76 0
450 -449 73 76 -74 0
450 -449 -73 -76 -74 0
452 449 -73 0
452 -449 73 0
-452 449 73 0
-452 -449 -73 0
451 76 -74 0
451 -76 74 0
-451 76 74 0
-451 -76 -74 0
-453 452 0
-453 72 0
-453 71 -74 0
-453 -71 74 0
453 -452 71 74 -72 0
453 -452 -71 -74 -72 0
455 452 -71 0
455 -452 71 0
-455 452 71 0
-455 -452 -71 0
454 74 -72 0
454 -74 72 0
-454 74 72 0
-454 -74 -72 0
-456 455 0
-456 70 0
-456 69 -72 0
-456 -69 72 0
456 -455 69 72 -70 0
456 -455 -69 -72 -70 0
458 455 -69 0
458 -455 69 0
-458 455 69 0
-458 -455 -69 0
457 72 -70 0
457 -72 70 0
-457 72 70 0
-457 -72 -70 0
-459 458 0
-459 68 0
-459 67 -70 0
-459 -67 70 0
459 -458 67 70 -68 0
459 -458 -67 -70 -68 0
461 458 -67 0
461 -458 67 0
-461 458 67 0
-461 -458 -67 0
460 70 -68 0
460 -70 68 0
-460 70 68 0
-460 -70 -68 0
-462 461 0
-462 66 0
-462 65 -68 0
-462 -65 68 0
462 -461 65 68 -66 0
462 -461 -65 -68 -66 0
464 461 -65 0
464 -461 65 0
-464 461 65 0
-464 -461 -65 0
463 68 -66 0
463 -68 66 0
-463 68 66 0
-463 -68 -66 0
-465 464 0
-465 64 0
-465 63 -66 0
-465 -63 66 0
465 -464 63 66 -64 0
465 -464 -63 -66 -64 0
467 464 -63 0
467 -464 63 0
-467 464 63 0
-467 -464 -63 0
466 66 -64 0
466 -66 64 0
-466 66 64 0
-466 -66 -64 0
-468 467 0
-468 62 0
-468 61 -64 0
-468 -61 64 0
468 -467 61 64 -62 0
468 -467 -61 -64 -62 0
470 467 -61 0
470 -467 61 0
-470 467 61 0
-470 -467 -61 0
469 64 -62 0
469 -64 62 0
-469 64 62 0
-469 -64 -62 0
-471 470 0
-471 60 0
-471 59 -62 0
-471 -59 62 0
471 -470 59 62 -60 0
471 -470 -59 -62 -60 0
473 470 -59 0
473 -470 59 0
-473 470 59 0
-473 -470 -59 0
472 62 -60 0
472 -62 60 0
-472 62 60 0
-472 -62 -60 0
-474 473 0
-474 58 0
-474 57 -60 0
-474 -57 60 0
474 -473 57 60 -58 0
474 -473 -57 -60 -58 0
476 473 -57 0
476 -473 57 0
-476 473 57 0
-476 -473 -57 0
475 60 -58 0
475 -60 58 0
-475 60 58 0
-475 -60 -58 0
-477 476 0
-477 56 0
-477 55 -58 0
-477 -55 58 0
477 -476 55 58 -56 0
477 -476 -55 -58 -56 0
479 476 -55 0
479 -476 55 0
-479 476 55 0
-479 -476 -55 0
478 58 -56 0
478 -58 56 0
-478 58 56 0
-478 -58 -56 0
-480 479 0
-480 54 0
-480 53 -56 0
-480 -53 56 0
480 -479 53 56 -54 0
480 -479 -53 -56 -54 0
482 479 -53 0
482 -479 53 0
-482 479 53 0
-482 -479 -53 0
481 56 -54 0
481 -56 54 0
-481 56 54 0
-481 -56 -54 0
-483 482 0
-483 52 0
-483 51 -54 0
-483 -51 54 0
483 -482 51 54 -52 0
483 -482 -51 -54 -52 0
485 482 -51 0
485 -482 51 0
-485 482 51 0
-485 -482 -51 0
484 54 -52 0
484 -54 52 0
-484 54 52 0
-484 -54 -52 0
-486 485 0
-486 50 0
-486 49 -52 0
-486 -49 52 0
486 -485 49 52 -50 0
486 -485 -49 -52 -50 0
488 485 -49 0
488 -485 49 0
-488 485 49 0
-488 -485 -49 0
487 52 -50 0
487 -52 50 0
-487 52 50 0
-487 -52 -50 0
-489 488 0
-489 48 0
-489 47 -50 0
-489 -47 50 0
489 -488 47 50 -48 0
489 -488 -47 -50 -48 0
491 488 -47 0
491 -488 47 0
-491 488 47 0
-491 -488 -47 0
490 50 -48 0
490 -50 48 0
-490 50 48 0
-490 -50 -48 0
-492 491 0
-492 46 0
-492 45 -48 0
-492 -45 48 0
492 -491 45 48 -46 0
492 -491 -45 -48 -46 0
494 491 -45 0
494 -491 45 0
-494 491 45 0
-494 -491 -45 0
493 48 -46 0
493 -48 46 0
-493 48 46 0
-493 -48 -46 0
-495 494 0
-495 44 0
-495 43 -46 0
-495 -43 46 0
495 -494 43 46 -44 0
495 -494 -43 -46 -44 0
497 494 -43 0
497 -494 43 0
-497 494 43 0
-497 -494 -43 0
496 46 -44 0
496 -46 44 0
-496 46 44 0
-496 -46 -44 0
-498 497 0
-498 42 0
-498 41 -44 0
-498 -41 44 0
498 -497 41 44 -42 0
498 -497 -41 -44 -42 0
500 497 -41 0
500 -497 41 0
-500 497 41 0
-500 -497 -41 0
499 44 -42 0
499 -44 42 0
-499 44 42 0
-499 -44 -42 0
-501 500 0
-501 40 0
-501 39 -42 0
-501 -39 42 0
501 -500 39 42 -40 0
501 -500 -39 -42 -40 0
503 500 -39 0
503 -500 39 0
-503 500 39 0
-503 -500 -39 0
502 42 -40 0
502 -42 40 0
-502 42 40 0
-502 -42 -40 0
-504 503 0
-504 38 0
-504 37 -40 0
-504 -37 40 0
504 -503 37 40 -38 0
504 -503 -37 -40 -38 0
506 503 -37 0
506 -503 37 0
-506 503 37 0
-506 -503 -37 0
505 40 -38 0
505 -40 38 0
-505 40 38 0
-505 -40 -38 0
-507 506 0
-507 36 0
-507 35 -38 0
-507 -35 38 0
507 -506 35 38 -36 0
507 -506 -35 -38 -36 0
509 506 -35 0
509 -506 35 0
-509 506 35 0
-509 -506 -35 0
508 38 -36 0
508 -38 36 0
-508 38 36 0
-508 -38 -36 0
-510 509 0
-510 34 0
-510 33 -36 0
-510 -33 36 0
510 -509 33 36 -34 0
510 -509 -33 -36 -34 0
512 509 -33 0
512 -509 33 0
-512 509 33 0
-512 -509 -33 0
511 36 -34 0
511 -36 34 0
-511 36 34 0
-511 -36 -34 0
-513 512 0
-513 32 0
-513 31 -34 0
-513 -31 34 0
513 -512 31 34 -32 0
513 -512 -31 -34 -32 0
515 512 -31 0
515 -512 31 0
-515 512 31 0
-515 -512 -31 0
514 34 -32 0
514 -34 32 0
-514 34 32 0
-514 -34 -32 0
-516 515 0
-516 30 0
-516 29 -32 0
-516 -29 32 0
516 -515 29 32 -30 0
516 -515 -29 -32 -30 0
518 515 -29 0
518 -515 29 0
-518 515 29 0
-518 -515 -29 0
517 32 -30 0
517 -32 30 0
-517 32 30 0
-517 -32 -30 0
-519 518 0
-519 28 0
-519 27 -30 0
-519 -27 30 0
519 -518 27 30 -28 0
519 -518 -27 -30 -28 0
521 518 -27 0
521 -518 27 0
-521 518 27 0
-521 -518 -27 0
520 30 -28 0
520 -30 28 0
-520 30 28 0
-520 -30 -28 0
-522 521 0
-522 26 0
-522 25 -28 0
-522 -25 28 0
522 -521 25 28 -26 0
522 -521 -25 -28 -26 0
524 521 -25 0
524 -521 25 0
-524 521 25 0
-524 -521 -25 0
523 28 -26 0
523 -28 26 0
-523 28 26 0
-523 -28 -26 0
-525 524 0
-525 24 0
-525 23 -26 0
-525 -23 26 0
525 -524 23 26 -24 0
525 -524 -23 -26 -24 0
527 524 -23 0
527 -524 23 0
-527 524 23 0
-527 -524 -23 0
526 26 -24 0
526 -26 24 0
-526 26 24 0
-526 -26 -24 0
-528 527 0
-528 22 0
-528 21 -24 0
-528 -21 24 0
528 -527 21 24 -22 0
528 -527 -21 -24 -22 0
530 527 -21 0
530 -527 21 0
-530 527 21 0
-530 -527 -21 0
529 24 -22 0
529 -24 22 0
-529 24 22 0
-529 -24 -22 0
-531 530 0
-531 20 0
-531 19 -22 0
-531 -19 22 0
531 -530 19 22 -20 0
531 -530 -19 -22 -20 0
533 530 -19 0
533 -530 19 0
-533 530 19 0
-533 -530 -19 0
532 22 -20 0
532 -22 20 0
-532 22 20 0
-532 -22 -20 0
-534 533 0
-534 18 0
-534 17 -20 0
-534 -17 20 0
534 -533 17 20 -18 0
534 -533 -17 -20 -18 0
536 533 -17 0
536 -533 17 0
-536 533 17 0
-536 -533 -17 0
535 20 -18 0
535 -20 18 0
-535 20 18 0
-535 -20 -18 0
-537 536 0
-537 16 0
-537 15 -18 0
-537 -15 18 0
537 -536 15 18 -16 0
537 -536 -15 -18 -16 0
539 536 -15 0
539 -536 15 0
-539 536 15 0
-539 -536 -15 0
538 18 -16 0
538 -18 16 0
-538 18 16 0
-538 -18 -16 0
-540 539 0
-540 14 0
-540 13 -16 0
-540 -13 16 0
540 -539 13 16 -14 0
540 -539 -13 -16 -14 0
542 539 -13 0
542 -539 13 0
-542 539 13 0
-542 -539 -13 0
541 16 -14 0
541 -16 14 0
-541 16 14 0
-541 -16 -14 0
-543 542 0
-543 12 0
-543 11 -14 0
-543 -11 14 0
543 -542 11 14 -12 0
543 -542 -11 -14 -12 0
545 542 -11 0
545 -542 11 0
-545 542 11 0
-545 -542 -11 0
544 14 -12 0
544 -14 12 0
-544 14 12 0
-544 -14 -12 0
-546 545 0
-546 10 0
-546 9 -12 0
-546 -9 12 0
546 -545 9 12 -10 0
546 -545 -9 -12 -10 0
548 545 -9 0
548 -545 9 0
-548 545 9 0
-548 -545 -9 0
547 12 -10 0
547 -12 10 0
-547 12 10 0
-547 -12 -10 0
-549 548 0
-549 8 0
-549 7 -10 0
-549 -7 10 0
549 -548 7 10 -8 0
549 -548 -7 -10 -8 0
551 548 -7 0
551 -548 7 0
-551 548 7 0
-551 -548 -7 0
550 10 -8 0
550 -10 8 0
-550 10 8 0
-550 -10 -8 0
-552 551 0
-552 6 0
-552 5 -8 0
-552 -5 8 0
552 -551 5 8 -6 0
552 -551 -5 -8 -6 0
554 551 -5 0
554 -551 5 0
-554 551 5 0
-554 -551 -5 0
553 8 -6 0
553 -8 6 0
-553 8 6 0
-553 -8 -6 0
-555 554 0
-555 4 0
-555 3 -6 0
-555 -3 6 0
555 -554 3 6 -4 0
555 -554 -3 -6 -4 0
557 554 -3 0
557 -554 3 0
-557 554 3 0
-557 -554 -3 0
556 6 -4 0
556 -6 4 0
-556 6 4 0
-556 -6 -4 0
-558 557 0
-558 2 0
-558 1 -4 0
-558 -1 4 0
558 -557 1 4 -2 0
558 -557 -1 -4 -2 0
560 557 -1 0
560 -557 1 0
-560 557 1 0
-560 -557 -1 0
559 4 -2 0
559 -4 2 0
-559 4 2 0
-559 -4 -2 0
-560 0
-557 0
-559 0
-554 0
-556 0
-551 0
-553 0
-548 0
-550 0
-545 0
-547 0
-542 0
-544 0
-539 0
-541 0
-536 0
-538 0
-533 0
-535 0
-530 0
-532 0
-527 0
-529 0
-524 0
-526 0
-521 0
-523 0
-518 0
-520 0
-515 0
-517 0
-512 0
-514 0
-509 0
-511 0
-506 0
-508 0
-503 0
-505 0
-500 0
-502 0
-497 0
-499 0
-494 0
-496 0
-491 0
-493 0
-488 0
-490 0
-485 0
-487 0
-482 0
-484 0
-479 0
-481 0
-476 0
-478 0
-473 0
-475 0
-470 0
-472 0
-467 0
-469 0
-464 0
-466 0
-461 0
-463 0
-458 0
-460 0
-455 0
-457 0
-452 0
-454 0
-449 0
-451 0
-446 0
-448 0
-443 0
-445 0
-440 0
-442 0
-437 0
-439 0
-434 0
-436 0
-431 0
-433 0
-428 0
-430 0
-425 0
-427 0
-422 0
-424 0
-419 0
-421 0
-416 0
-418 0
-413 0
-415 0
-410 0
-412 0
-407 0
-409 0
-404 0
-406 0
-401 0
-403 0
-398 0
-400 0
-395 0
-397 0
-392 0
-394 0
-389 0
-391 0
-386 0
-388 0
-383 0
-385 0
-380 0
-382 0
-377 0
-379 0
-374 0
-376 0
-371 0
-373 0
-368 0
-370 0
-365 0
-367 0
-362 0
-364 0
-359 0
-361 0
-356 0
-358 0
-353 0
-355 0
-350 0
-352 0
-347 0
-349 0
-344 0
-346 0
-341 0
-343 0
-338 0
-340 0
-335 0
-337 0
-332 0
-334 0
-329 0
-331 0
-326 0
-328 0
-323 0
-325 0
-320 0
-322 0
-317 0
-319 0
-314 0
-316 0
-311 0
-313 0
-308 0
-310 0
-305 0
-307 0
-302 0
-304 0
-299 0
-301 0
-296 0
-298 0
-293 0
-295 0
-290 0
-292 0
-287 0
-289 0
-284 0
-286 0
-281 0
-283 0
-278 0
-280 0
-275 0
-277 0
-272 0
-274 0
-269 0
-271 0
-266 0
-268 0
-263 0
-265 0
-260 0
-262 0
-257 0
-259 0
-254 0
-256 0
-251 0
-253 0
-248 0
-250 0
-245 0
-247 0
-242 0
-244 0
-239 0
-241 0
-236 0
-238 0
-233 0
-235 0
-226 0
-232 0
